p cnf 675 1697
a 5 6 7 8 9 10 11 12 13 14 15 16 17 18 19 20 21 22 23 24 25 26 27 28 29 30 31 32 33 34 36 37 38 39 40 41 42 43 45 46 47 48 49 50 51 52 54 55 56 57 58 59 60 61 62 63 64 65 66 67 68 69 70 71 72 73 74 75 76 77 78 79 80 81 82 83 84 85 86 87 88 89 90 91 92 93 94 0
e 1 2 3 4 95 96 97 98 99 100 101 102 103 104 105 106 107 108 109 110 111 112 113 114 115 116 117 118 119 120 121 122 123 124 125 126 127 128 129 130 131 132 133 134 135 136 137 138 139 140 141 142 143 144 145 146 147 148 149 150 151 152 153 154 155 156 157 158 159 160 161 162 163 164 165 166 167 168 169 170 171 172 173 174 175 176 177 178 179 180 181 182 183 184 185 186 187 188 189 190 191 192 193 194 195 196 197 198 199 200 201 202 203 204 205 206 207 208 209 210 211 212 213 214 215 216 217 218 219 220 221 222 223 224 225 226 227 228 229 230 231 232 233 234 235 236 237 238 239 240 241 242 243 244 245 246 247 248 249 250 251 252 253 254 255 256 257 258 259 260 261 262 263 264 265 266 267 268 269 270 271 272 273 274 275 276 277 278 279 280 281 282 283 284 285 286 287 288 289 290 291 292 293 294 295 296 297 298 299 300 301 302 303 304 305 306 307 308 309 310 311 312 313 314 315 316 317 318 319 320 321 322 323 324 325 326 327 328 329 330 331 332 333 334 335 336 337 338 339 340 341 342 343 344 345 346 347 348 349 350 351 352 353 354 355 356 357 358 359 360 361 362 363 364 365 366 367 368 369 370 371 372 373 374 375 376 377 378 379 380 381 382 383 384 385 386 387 388 389 390 391 392 393 394 395 396 397 398 399 400 401 402 403 404 405 406 407 408 409 410 411 412 413 414 415 416 417 418 419 420 421 422 423 424 425 426 427 428 429 430 431 432 433 434 435 436 437 438 439 440 441 442 443 444 445 446 447 448 449 450 451 452 453 454 455 456 457 458 459 460 461 462 463 464 465 466 467 468 469 470 471 472 473 474 475 476 477 478 479 480 481 482 483 484 485 486 487 488 489 490 491 492 493 494 495 496 497 498 499 500 501 502 503 504 505 506 507 508 509 510 511 512 513 514 515 516 517 518 519 520 521 522 523 524 525 526 527 528 529 530 531 532 533 534 535 536 537 538 539 540 541 542 543 544 545 546 547 548 549 550 551 552 553 554 555 556 557 558 559 560 561 562 563 564 565 566 567 568 569 570 571 572 573 574 575 576 577 578 579 580 581 582 583 584 585 586 587 588 589 590 591 592 593 594 595 596 597 598 599 600 601 602 603 604 605 606 607 608 609 610 611 612 613 614 615 616 617 618 619 620 621 622 623 624 625 626 627 628 629 630 631 632 633 634 635 636 637 638 639 640 641 642 643 644 645 646 647 648 649 650 651 652 653 654 655 656 657 658 659 660 661 662 663 664 665 666 667 668 669 670 671 672 673 674 675 0
-675 0
675 -384 0
675 -674 0
-673 -672 -671 -670 -669 -668 -664 -659 -655 -630 -625 -611 -607 -602 -567 -524 -509 674 0
673 -4 0
673 -3 0
673 -2 0
673 -1 0
672 -523 0
672 -501 0
672 -654 0
672 -502 0
672 -503 0
672 -504 0
672 -505 0
672 -506 0
672 -507 0
672 -508 0
671 -601 0
671 -624 0
671 -501 0
671 -502 0
671 -503 0
671 -504 0
671 -505 0
671 -506 0
671 -507 0
671 -508 0
670 -566 0
670 -500 0
670 -501 0
670 -502 0
670 -503 0
670 -504 0
670 -505 0
670 -506 0
670 -507 0
670 -508 0
669 -490 0
669 -591 0
669 -501 0
669 -502 0
669 -503 0
669 -504 0
669 -505 0
669 -506 0
669 -507 0
669 -508 0
668 -667 0
668 -500 0
668 -501 0
668 -654 0
668 -502 0
668 -503 0
668 -504 0
668 -505 0
668 -506 0
668 -507 0
668 -508 0
-638 -637 -636 -666 -665 667 0
666 -634 0
666 -416 0
666 -417 0
666 -418 0
666 -419 0
666 -420 0
665 -660 0
665 -475 0
665 -417 0
665 -418 0
665 -419 0
665 -420 0
664 -663 0
664 -591 0
664 -501 0
664 -654 0
664 -502 0
664 -503 0
664 -504 0
664 -505 0
664 -506 0
664 -507 0
664 -508 0
-633 -632 -631 -662 -661 663 0
662 -534 0
662 -639 0
662 -417 0
662 -418 0
662 -419 0
662 -420 0
661 -660 0
661 -543 0
661 -417 0
661 -418 0
661 -419 0
661 -420 0
-643 -642 -641 660 0
659 -658 0
659 -591 0
659 -566 0
659 -501 0
659 -502 0
659 -503 0
659 -504 0
659 -505 0
659 -506 0
659 -507 0
659 -508 0
-550 -657 -549 -544 -656 658 0
657 -627 0
657 -548 0
657 -417 0
657 -418 0
657 -419 0
657 -420 0
656 -538 0
656 -543 0
656 -417 0
656 -418 0
656 -419 0
656 -420 0
655 -644 0
655 -624 0
655 -501 0
655 -654 0
655 -502 0
655 -503 0
655 -504 0
655 -505 0
655 -506 0
655 -507 0
655 -508 0
-653 -650 -647 654 0
653 -651 0
653 -652 0
653 -28 0
653 -27 0
-1 -22 652 0
-19 1 651 0
650 -648 0
650 -649 0
650 -26 0
650 -25 0
-1 -20 649 0
-18 1 648 0
647 -645 0
647 -646 0
647 -24 0
647 -23 0
-17 1 646 0
-1 -21 645 0
-643 -642 -641 -640 -635 644 0
643 -468 0
643 -417 0
643 -418 0
643 -419 0
643 -420 0
642 -463 0
642 -417 0
642 -418 0
642 -419 0
642 -458 0
642 -420 0
641 -441 0
641 -548 0
641 -417 0
641 -418 0
641 -419 0
641 -420 0
640 -463 0
640 -639 0
640 -417 0
640 -418 0
640 -419 0
640 -420 0
-638 -637 -636 639 0
638 -417 0
638 -418 0
638 -419 0
638 -458 0
638 -420 0
637 -468 0
637 -475 0
637 -417 0
637 -418 0
637 -419 0
637 -420 0
636 -548 0
636 -416 0
636 -417 0
636 -418 0
636 -419 0
636 -420 0
635 -441 0
635 -634 0
635 -417 0
635 -418 0
635 -419 0
635 -420 0
-633 -632 -631 634 0
633 -548 0
633 -417 0
633 -418 0
633 -419 0
633 -420 0
632 -534 0
632 -417 0
632 -418 0
632 -419 0
632 -458 0
632 -420 0
631 -543 0
631 -468 0
631 -417 0
631 -418 0
631 -419 0
631 -420 0
630 -629 0
630 -566 0
630 -624 0
630 -501 0
630 -502 0
630 -503 0
630 -504 0
630 -505 0
630 -506 0
630 -507 0
630 -508 0
-537 -536 -535 -628 -626 629 0
628 -627 0
628 -468 0
628 -417 0
628 -418 0
628 -419 0
628 -420 0
-555 -554 -553 627 0
626 -551 0
626 -441 0
626 -417 0
626 -418 0
626 -419 0
626 -420 0
625 -614 0
625 -490 0
625 -624 0
625 -501 0
625 -502 0
625 -503 0
625 -504 0
625 -505 0
625 -506 0
625 -507 0
625 -508 0
-623 -620 -617 624 0
623 -621 0
623 -94 0
623 -91 0
623 -622 0
-4 -10 622 0
-7 4 621 0
620 -618 0
620 -619 0
620 -93 0
620 -90 0
-4 -8 619 0
-6 4 618 0
617 -615 0
617 -92 0
617 -89 0
617 -616 0
-5 4 616 0
-4 -9 615 0
-470 -613 -469 -464 -612 614 0
613 -511 0
613 -463 0
613 -417 0
613 -418 0
613 -419 0
613 -420 0
612 -448 0
612 -468 0
612 -417 0
612 -418 0
612 -419 0
612 -420 0
611 -610 0
611 -601 0
611 -523 0
611 -501 0
611 -502 0
611 -503 0
611 -504 0
611 -505 0
611 -506 0
611 -507 0
611 -508 0
-570 -609 -608 -569 -568 610 0
609 -576 0
609 -400 0
609 -417 0
609 -418 0
609 -419 0
609 -420 0
608 -604 0
608 -446 0
608 -417 0
608 -418 0
608 -419 0
608 -420 0
607 -606 0
607 -500 0
607 -601 0
607 -501 0
607 -502 0
607 -503 0
607 -504 0
607 -505 0
607 -506 0
607 -507 0
607 -508 0
-575 -574 -573 -605 -603 606 0
605 -604 0
605 -416 0
605 -417 0
605 -418 0
605 -419 0
605 -420 0
-580 -579 -578 604 0
603 -571 0
603 -417 0
603 -418 0
603 -419 0
603 -458 0
603 -420 0
602 -581 0
602 -591 0
602 -601 0
602 -501 0
602 -502 0
602 -503 0
602 -504 0
602 -505 0
602 -506 0
602 -507 0
602 -508 0
-600 -597 -594 601 0
600 -598 0
600 -599 0
600 -88 0
600 -64 0
-4 -22 599 0
-19 4 598 0
597 -595 0
597 -596 0
597 -87 0
597 -63 0
-4 -20 596 0
-18 4 595 0
594 -592 0
594 -593 0
594 -86 0
594 -62 0
-4 -21 593 0
-17 4 592 0
-590 -587 -584 591 0
590 -588 0
590 -589 0
590 -91 0
590 -16 0
-3 -10 589 0
-7 3 588 0
587 -585 0
587 -586 0
587 -90 0
587 -14 0
-3 -8 586 0
-6 3 585 0
584 -582 0
584 -583 0
584 -89 0
584 -12 0
-3 -9 583 0
-5 3 582 0
-580 -579 -578 -577 -572 581 0
580 -543 0
580 -417 0
580 -418 0
580 -419 0
580 -420 0
579 -431 0
579 -548 0
579 -417 0
579 -418 0
579 -419 0
579 -420 0
578 -534 0
578 -475 0
578 -417 0
578 -418 0
578 -419 0
578 -420 0
577 -576 0
577 -534 0
577 -417 0
577 -418 0
577 -419 0
577 -420 0
-575 -574 -573 576 0
575 -475 0
575 -417 0
575 -418 0
575 -419 0
575 -420 0
574 -431 0
574 -417 0
574 -418 0
574 -419 0
574 -458 0
574 -420 0
573 -543 0
573 -416 0
573 -417 0
573 -418 0
573 -419 0
573 -420 0
572 -571 0
572 -548 0
572 -417 0
572 -418 0
572 -419 0
572 -420 0
-570 -569 -568 571 0
570 -431 0
570 -417 0
570 -418 0
570 -419 0
570 -420 0
569 -400 0
569 -475 0
569 -417 0
569 -418 0
569 -419 0
569 -420 0
568 -446 0
568 -543 0
568 -417 0
568 -418 0
568 -419 0
568 -420 0
567 -556 0
567 -566 0
567 -523 0
567 -501 0
567 -502 0
567 -503 0
567 -504 0
567 -505 0
567 -506 0
567 -507 0
567 -508 0
-565 -562 -559 566 0
565 -563 0
565 -564 0
565 -64 0
565 -28 0
-2 -22 564 0
-19 2 563 0
562 -560 0
562 -561 0
562 -63 0
562 -26 0
-2 -20 561 0
-18 2 560 0
559 -557 0
559 -558 0
559 -62 0
559 -24 0
-2 -21 558 0
-17 2 557 0
-555 -554 -553 -552 -539 556 0
555 -446 0
555 -534 0
555 -417 0
555 -418 0
555 -419 0
555 -420 0
554 -431 0
554 -463 0
554 -417 0
554 -418 0
554 -419 0
554 -420 0
553 -400 0
553 -417 0
553 -418 0
553 -419 0
553 -420 0
552 -551 0
552 -446 0
552 -417 0
552 -418 0
552 -419 0
552 -420 0
-550 -549 -544 551 0
550 -534 0
550 -417 0
550 -418 0
550 -419 0
550 -420 0
549 -400 0
549 -548 0
549 -417 0
549 -418 0
549 -419 0
549 -420 0
-547 -546 -545 548 0
547 -531 0
547 -532 0
547 -455 0
547 -456 0
547 -76 0
547 -71 0
547 -59 0
547 -58 0
547 -57 0
547 -56 0
547 -55 0
546 -528 0
546 -529 0
546 -452 0
546 -453 0
546 -75 0
546 -68 0
546 -50 0
546 -49 0
546 -48 0
546 -47 0
546 -46 0
545 -525 0
545 -526 0
545 -449 0
545 -450 0
545 -74 0
545 -65 0
545 -41 0
545 -40 0
545 -39 0
545 -38 0
545 -37 0
544 -463 0
544 -543 0
544 -417 0
544 -418 0
544 -419 0
544 -420 0
-542 -541 -540 543 0
542 -531 0
542 -532 0
542 -428 0
542 -429 0
542 -82 0
542 -76 0
542 -73 0
542 -72 0
542 -71 0
542 -59 0
542 -56 0
541 -528 0
541 -529 0
541 -425 0
541 -426 0
541 -81 0
541 -75 0
541 -70 0
541 -69 0
541 -68 0
541 -50 0
541 -47 0
540 -525 0
540 -526 0
540 -422 0
540 -423 0
540 -80 0
540 -74 0
540 -67 0
540 -66 0
540 -65 0
540 -41 0
540 -38 0
539 -538 0
539 -431 0
539 -417 0
539 -418 0
539 -419 0
539 -420 0
-537 -536 -535 538 0
537 -463 0
537 -417 0
537 -418 0
537 -419 0
537 -420 0
536 -400 0
536 -468 0
536 -417 0
536 -418 0
536 -419 0
536 -420 0
535 -441 0
535 -534 0
535 -417 0
535 -418 0
535 -419 0
535 -420 0
-533 -530 -527 534 0
533 -396 0
533 -397 0
533 -531 0
533 -532 0
533 -79 0
533 -76 0
533 -72 0
533 -71 0
533 -58 0
533 -57 0
533 -56 0
-3 -34 532 0
-31 3 531 0
530 -390 0
530 -391 0
530 -528 0
530 -529 0
530 -78 0
530 -75 0
530 -69 0
530 -68 0
530 -49 0
530 -48 0
530 -47 0
-3 -32 529 0
-30 3 528 0
527 -386 0
527 -387 0
527 -525 0
527 -526 0
527 -77 0
527 -74 0
527 -66 0
527 -65 0
527 -40 0
527 -39 0
527 -38 0
-3 -33 526 0
-29 3 525 0
524 -513 0
524 -490 0
524 -523 0
524 -501 0
524 -502 0
524 -503 0
524 -504 0
524 -505 0
524 -506 0
524 -507 0
524 -508 0
-522 -519 -516 523 0
522 -520 0
522 -521 0
522 -16 0
522 -15 0
-1 -10 521 0
-7 1 520 0
519 -517 0
519 -518 0
519 -14 0
519 -13 0
-1 -8 518 0
-6 1 517 0
516 -514 0
516 -515 0
516 -12 0
516 -11 0
-1 -9 515 0
-5 1 514 0
-447 -442 -421 -512 -510 513 0
512 -511 0
512 -400 0
512 -417 0
512 -418 0
512 -419 0
512 -420 0
-479 -478 -477 511 0
510 -471 0
510 -431 0
510 -417 0
510 -418 0
510 -419 0
510 -420 0
509 -480 0
509 -490 0
509 -500 0
509 -501 0
509 -502 0
509 -503 0
509 -504 0
509 -505 0
509 -506 0
509 -507 0
509 -508 0
-6 5 508 0
-9 8 507 0
-7 6 506 0
-18 17 505 0
-21 20 504 0
-19 18 503 0
-8 10 502 0
-20 22 501 0
-499 -496 -493 500 0
499 -497 0
499 -498 0
499 -91 0
499 -16 0
-2 -10 498 0
-7 2 497 0
496 -494 0
496 -495 0
496 -90 0
496 -14 0
-2 -8 495 0
-6 2 494 0
493 -491 0
493 -492 0
493 -89 0
493 -12 0
-2 -9 492 0
-5 2 491 0
-489 -486 -483 490 0
489 -487 0
489 -488 0
489 -64 0
489 -28 0
-3 -22 488 0
-19 3 487 0
486 -484 0
486 -485 0
486 -63 0
486 -26 0
-3 -20 485 0
-18 3 484 0
483 -481 0
483 -482 0
483 -62 0
483 -24 0
-3 -21 482 0
-17 3 481 0
-479 -478 -477 -476 -459 480 0
479 -416 0
479 -417 0
479 -418 0
479 -419 0
479 -420 0
478 -446 0
478 -417 0
478 -418 0
478 -419 0
478 -458 0
478 -420 0
477 -441 0
477 -475 0
477 -417 0
477 -418 0
477 -419 0
477 -420 0
476 -471 0
476 -475 0
476 -417 0
476 -418 0
476 -419 0
476 -420 0
-474 -473 -472 475 0
474 -428 0
474 -413 0
474 -414 0
474 -429 0
474 -82 0
474 -76 0
474 -72 0
474 -71 0
474 -59 0
474 -58 0
474 -56 0
473 -425 0
473 -408 0
473 -409 0
473 -426 0
473 -81 0
473 -75 0
473 -69 0
473 -68 0
473 -50 0
473 -49 0
473 -47 0
472 -422 0
472 -423 0
472 -403 0
472 -404 0
472 -80 0
472 -74 0
472 -66 0
472 -65 0
472 -41 0
472 -40 0
472 -38 0
-470 -469 -464 471 0
470 -441 0
470 -417 0
470 -418 0
470 -419 0
470 -420 0
469 -446 0
469 -468 0
469 -417 0
469 -418 0
469 -419 0
469 -420 0
-467 -466 -465 468 0
467 -438 0
467 -439 0
467 -455 0
467 -456 0
467 -85 0
467 -76 0
467 -71 0
467 -59 0
467 -58 0
467 -57 0
467 -55 0
466 -435 0
466 -452 0
466 -453 0
466 -436 0
466 -84 0
466 -75 0
466 -68 0
466 -50 0
466 -49 0
466 -48 0
466 -46 0
465 -432 0
465 -433 0
465 -449 0
465 -450 0
465 -83 0
465 -74 0
465 -65 0
465 -41 0
465 -40 0
465 -39 0
465 -37 0
464 -463 0
464 -416 0
464 -417 0
464 -418 0
464 -419 0
464 -420 0
-462 -461 -460 463 0
462 -396 0
462 -397 0
462 -438 0
462 -439 0
462 -85 0
462 -76 0
462 -72 0
462 -71 0
462 -59 0
462 -58 0
462 -57 0
461 -390 0
461 -391 0
461 -435 0
461 -436 0
461 -84 0
461 -75 0
461 -69 0
461 -68 0
461 -50 0
461 -49 0
461 -48 0
460 -386 0
460 -387 0
460 -432 0
460 -433 0
460 -83 0
460 -74 0
460 -66 0
460 -65 0
460 -41 0
460 -40 0
460 -39 0
459 -448 0
459 -417 0
459 -418 0
459 -419 0
459 -458 0
459 -420 0
-457 -454 -451 458 0
457 -413 0
457 -414 0
457 -455 0
457 -456 0
457 -79 0
457 -76 0
457 -71 0
457 -58 0
457 -57 0
457 -56 0
457 -55 0
-1 -61 456 0
1 -60 455 0
454 -452 0
454 -453 0
454 -408 0
454 -409 0
454 -78 0
454 -75 0
454 -68 0
454 -49 0
454 -48 0
454 -47 0
454 -46 0
-1 -52 453 0
1 -51 452 0
451 -403 0
451 -404 0
451 -449 0
451 -450 0
451 -77 0
451 -74 0
451 -65 0
451 -40 0
451 -39 0
451 -38 0
451 -37 0
-1 -43 450 0
1 -42 449 0
-447 -442 -421 448 0
447 -446 0
447 -417 0
447 -418 0
447 -419 0
447 -420 0
-445 -444 -443 446 0
445 -395 0
445 -411 0
445 -412 0
445 -398 0
445 -72 0
445 -71 0
445 -59 0
445 -58 0
445 -57 0
445 -56 0
445 -54 0
444 -406 0
444 -407 0
444 -392 0
444 -393 0
444 -69 0
444 -68 0
444 -50 0
444 -49 0
444 -48 0
444 -47 0
444 -45 0
443 -385 0
443 -401 0
443 -402 0
443 -388 0
443 -66 0
443 -65 0
443 -41 0
443 -40 0
443 -39 0
443 -38 0
443 -36 0
442 -431 0
442 -441 0
442 -417 0
442 -418 0
442 -419 0
442 -420 0
-440 -437 -434 441 0
440 -411 0
440 -412 0
440 -438 0
440 -439 0
440 -85 0
440 -79 0
440 -76 0
440 -72 0
440 -71 0
440 -58 0
440 -57 0
-4 -34 439 0
-31 4 438 0
437 -406 0
437 -407 0
437 -435 0
437 -436 0
437 -84 0
437 -78 0
437 -75 0
437 -69 0
437 -68 0
437 -49 0
437 -48 0
-4 -32 436 0
-30 4 435 0
434 -401 0
434 -402 0
434 -432 0
434 -433 0
434 -83 0
434 -77 0
434 -74 0
434 -66 0
434 -65 0
434 -40 0
434 -39 0
-4 -33 433 0
-29 4 432 0
-430 -427 -424 431 0
430 -395 0
430 -428 0
430 -429 0
430 -398 0
430 -82 0
430 -72 0
430 -71 0
430 -59 0
430 -58 0
430 -56 0
430 -54 0
-4 -61 429 0
4 -60 428 0
427 -425 0
427 -426 0
427 -392 0
427 -393 0
427 -81 0
427 -69 0
427 -68 0
427 -50 0
427 -49 0
427 -47 0
427 -45 0
-4 -52 426 0
4 -51 425 0
424 -385 0
424 -422 0
424 -423 0
424 -388 0
424 -80 0
424 -66 0
424 -65 0
424 -41 0
424 -40 0
424 -38 0
424 -36 0
-4 -43 423 0
4 -42 422 0
421 -400 0
421 -416 0
421 -417 0
421 -418 0
421 -419 0
421 -420 0
-30 29 420 0
-32 34 419 0
-33 32 418 0
-31 30 417 0
-415 -410 -405 416 0
415 -411 0
415 -412 0
415 -413 0
415 -414 0
415 -76 0
415 -73 0
415 -72 0
415 -71 0
415 -59 0
415 -57 0
415 -56 0
-2 -34 414 0
-31 2 413 0
-3 -61 412 0
3 -60 411 0
410 -406 0
410 -407 0
410 -408 0
410 -409 0
410 -75 0
410 -70 0
410 -69 0
410 -68 0
410 -50 0
410 -48 0
410 -47 0
-2 -32 409 0
-30 2 408 0
-3 -52 407 0
3 -51 406 0
405 -401 0
405 -402 0
405 -403 0
405 -404 0
405 -74 0
405 -67 0
405 -66 0
405 -65 0
405 -41 0
405 -39 0
405 -38 0
-2 -33 404 0
-29 2 403 0
-3 -43 402 0
3 -42 401 0
-399 -394 -389 400 0
399 -395 0
399 -396 0
399 -397 0
399 -398 0
399 -73 0
399 -72 0
399 -71 0
399 -59 0
399 -57 0
399 -56 0
399 -54 0
-31 1 398 0
-2 -61 397 0
2 -60 396 0
-1 -34 395 0
394 -390 0
394 -391 0
394 -392 0
394 -393 0
394 -70 0
394 -69 0
394 -68 0
394 -50 0
394 -48 0
394 -47 0
394 -45 0
-1 -32 393 0
-30 1 392 0
-2 -52 391 0
2 -51 390 0
389 -385 0
389 -386 0
389 -387 0
389 -388 0
389 -67 0
389 -66 0
389 -65 0
389 -41 0
389 -39 0
389 -38 0
389 -36 0
-1 -33 388 0
-2 -43 387 0
2 -42 386 0
-29 1 385 0
4 3 2 1 -383 384 0
383 -219 0
383 -234 0
383 -277 0
383 -312 0
383 -317 0
383 -321 0
383 -335 0
383 -340 0
383 -365 0
383 -369 0
383 -374 0
383 -378 0
383 -379 0
383 -380 0
383 -381 0
383 -382 0
-218 -217 -216 -215 -214 -213 -212 -211 -364 -233 382 0
-218 -217 -216 -215 -214 -213 -212 -211 -334 -311 381 0
-218 -217 -216 -215 -214 -213 -212 -211 -210 -276 380 0
-218 -217 -216 -215 -214 -213 -212 -211 -301 -200 379 0
-218 -217 -216 -215 -214 -213 -212 -211 -364 -210 -377 378 0
377 -375 0
377 -376 0
377 -346 0
377 -347 0
377 -348 0
-130 -129 -128 -127 -126 -344 376 0
-130 -129 -128 -127 -185 -370 375 0
-218 -217 -216 -215 -214 -213 -212 -211 -364 -301 -373 374 0
373 -371 0
373 -372 0
373 -341 0
373 -342 0
373 -343 0
-130 -129 -128 -127 -349 -244 372 0
-130 -129 -128 -127 -253 -370 371 0
370 -351 0
370 -352 0
370 -353 0
-218 -217 -216 -215 -214 -213 -212 -211 -276 -301 -368 369 0
368 -366 0
368 -254 0
368 -259 0
368 -367 0
368 -260 0
-130 -129 -128 -127 -258 -337 367 0
-130 -129 -128 -127 -253 -248 366 0
-218 -217 -216 -215 -214 -213 -212 -211 -364 -334 -354 365 0
364 -357 0
364 -360 0
364 -363 0
28 27 -362 -361 363 0
362 1 0
362 22 0
361 19 0
361 -1 0
25 26 -359 -358 360 0
359 1 0
359 20 0
358 18 0
358 -1 0
24 23 -356 -355 357 0
356 17 0
356 -1 0
355 1 0
355 21 0
354 -345 0
354 -350 0
354 -351 0
354 -352 0
354 -353 0
-130 -129 -128 -127 -178 353 0
-130 -168 -129 -128 -127 -173 352 0
-130 -129 -128 -127 -258 -151 351 0
-130 -129 -128 -127 -349 -173 350 0
349 -346 0
349 -347 0
349 -348 0
-130 -168 -129 -128 -127 348 0
-130 -129 -128 -127 -185 -178 347 0
-130 -129 -128 -127 -126 -258 346 0
-130 -129 -128 -127 -344 -151 345 0
344 -341 0
344 -342 0
344 -343 0
-130 -129 -128 -127 -258 343 0
-130 -168 -129 -128 -127 -244 342 0
-130 -129 -128 -127 -178 -253 341 0
-218 -217 -216 -215 -214 -213 -212 -211 -334 -276 -339 340 0
339 -336 0
339 -338 0
339 -245 0
339 -246 0
339 -247 0
-130 -129 -128 -127 -178 -337 338 0
337 -263 0
337 -264 0
337 -265 0
-130 -129 -128 -127 -151 -261 336 0
-218 -217 -216 -215 -214 -213 -212 -211 -334 -200 -324 335 0
334 -327 0
334 -330 0
334 -333 0
-332 91 94 -331 333 0
332 10 0
332 4 0
331 7 0
331 -4 0
90 93 -329 -328 330 0
329 8 0
329 4 0
328 6 0
328 -4 0
-326 89 92 -325 327 0
326 5 0
326 -4 0
325 4 0
325 9 0
324 -322 0
324 -174 0
324 -179 0
324 -323 0
324 -180 0
-130 -129 -128 -127 -173 -221 323 0
-130 -129 -128 -127 -178 -158 322 0
-218 -217 -216 -215 -214 -213 -212 -211 -233 -311 -320 321 0
320 -278 0
320 -279 0
320 -318 0
320 -319 0
320 -280 0
-130 -129 -128 -127 -110 -286 319 0
-130 -129 -128 -127 -156 -314 318 0
-218 -217 -216 -215 -214 -213 -212 -211 -311 -210 -316 317 0
316 -313 0
316 -315 0
316 -283 0
316 -284 0
316 -285 0
-130 -129 -128 -127 -126 -314 315 0
314 -288 0
314 -289 0
314 -290 0
-130 -168 -129 -128 -127 -281 313 0
-218 -217 -216 -215 -214 -213 -212 -211 -311 -301 -291 312 0
311 -304 0
311 -307 0
311 -310 0
64 88 -309 -308 310 0
309 22 0
309 4 0
308 19 0
308 -4 0
63 87 -306 -305 307 0
306 20 0
306 4 0
305 18 0
305 -4 0
62 86 -303 -302 304 0
303 21 0
303 4 0
302 17 0
302 -4 0
301 -294 0
301 -297 0
301 -300 0
16 91 -299 -298 300 0
299 3 0
299 10 0
298 7 0
298 -3 0
14 90 -296 -295 297 0
296 3 0
296 8 0
295 6 0
295 -3 0
12 89 -293 -292 294 0
293 3 0
293 9 0
292 5 0
292 -3 0
291 -282 0
291 -287 0
291 -288 0
291 -289 0
291 -290 0
-130 -129 -128 -127 -253 290 0
-130 -129 -128 -127 -258 -141 289 0
-130 -129 -128 -127 -185 -244 288 0
-130 -129 -128 -127 -244 -286 287 0
286 -283 0
286 -284 0
286 -285 0
-130 -129 -128 -127 -185 285 0
-130 -168 -129 -128 -127 -141 284 0
-130 -129 -128 -127 -126 -253 283 0
-130 -129 -128 -127 -258 -281 282 0
281 -278 0
281 -279 0
281 -280 0
-130 -129 -128 -127 -141 280 0
-130 -129 -128 -127 -185 -110 279 0
-130 -129 -128 -127 -253 -156 278 0
-218 -217 -216 -215 -214 -213 -212 -211 -233 -276 -266 277 0
276 -269 0
276 -272 0
276 -275 0
28 64 -274 -273 275 0
274 2 0
274 22 0
273 19 0
273 -2 0
26 63 -271 -270 272 0
271 2 0
271 20 0
270 18 0
270 -2 0
24 62 -268 -267 269 0
268 2 0
268 21 0
267 17 0
267 -2 0
266 -249 0
266 -262 0
266 -263 0
266 -264 0
266 -265 0
-130 -129 -128 -127 -244 -156 265 0
-130 -129 -128 -127 -173 -141 264 0
-130 -129 -128 -127 -110 263 0
-130 -129 -128 -127 -156 -261 262 0
261 -254 0
261 -259 0
261 -260 0
-130 -129 -128 -127 -244 260 0
-130 -129 -128 -127 -258 -110 259 0
258 -255 0
258 -256 0
258 -257 0
56 55 76 59 58 57 71 -166 -165 -242 -241 257 0
50 68 49 48 46 75 47 -163 -162 -239 -238 256 0
39 38 37 40 65 74 41 -160 -159 -236 -235 255 0
-130 -129 -128 -127 -253 -173 254 0
253 -250 0
253 -251 0
253 -252 0
56 76 59 73 72 71 82 -139 -138 -242 -241 252 0
81 50 69 68 75 47 70 -136 -135 -239 -238 251 0
38 67 66 65 74 80 41 -133 -132 -236 -235 250 0
-130 -129 -128 -127 -141 -248 249 0
248 -245 0
248 -246 0
248 -247 0
-130 -129 -128 -127 -173 247 0
-130 -129 -128 -127 -178 -110 246 0
-130 -129 -128 -127 -244 -151 245 0
244 -237 0
244 -240 0
244 -243 0
56 76 58 57 79 72 71 -242 -241 -107 -106 243 0
242 34 0
242 3 0
241 31 0
241 -3 0
69 68 49 48 75 47 78 -239 -238 -101 -100 240 0
239 32 0
239 3 0
238 30 0
238 -3 0
39 38 66 40 65 74 77 -236 -235 -97 -96 237 0
236 33 0
236 3 0
235 29 0
235 -3 0
-218 -217 -216 -215 -214 -213 -212 -211 -233 -200 -223 234 0
233 -226 0
233 -229 0
233 -232 0
16 15 -231 -230 232 0
231 1 0
231 10 0
230 7 0
230 -1 0
13 14 -228 -227 229 0
228 1 0
228 8 0
227 6 0
227 -1 0
12 11 -225 -224 226 0
225 1 0
225 9 0
224 5 0
224 -1 0
223 -220 0
223 -222 0
223 -131 0
223 -152 0
223 -157 0
-130 -129 -128 -127 -110 -221 222 0
221 -187 0
221 -188 0
221 -189 0
-130 -129 -128 -127 -141 -181 220 0
-218 -217 -216 -215 -214 -213 -212 -211 -210 -200 -190 219 0
218 6 0
218 -5 0
217 9 0
217 -8 0
216 7 0
216 -6 0
215 18 0
215 -17 0
214 21 0
214 -20 0
213 8 0
213 -10 0
212 19 0
212 -18 0
211 20 0
211 -22 0
210 -203 0
210 -206 0
210 -209 0
16 91 -208 -207 209 0
208 2 0
208 10 0
207 7 0
207 -2 0
14 90 -205 -204 206 0
205 2 0
205 8 0
204 6 0
204 -2 0
12 89 -202 -201 203 0
202 2 0
202 9 0
201 5 0
201 -2 0
200 -193 0
200 -196 0
200 -199 0
28 64 -198 -197 199 0
198 3 0
198 22 0
197 19 0
197 -3 0
26 63 -195 -194 196 0
195 3 0
195 20 0
194 18 0
194 -3 0
24 62 -192 -191 193 0
192 3 0
192 21 0
191 17 0
191 -3 0
190 -169 0
190 -186 0
190 -187 0
190 -188 0
190 -189 0
-130 -129 -128 -127 -126 189 0
-130 -168 -129 -128 -127 -156 188 0
-130 -129 -128 -127 -185 -151 187 0
-130 -129 -128 -127 -185 -181 186 0
185 -182 0
185 -183 0
185 -184 0
56 76 59 58 72 71 82 -139 -124 -123 -138 184 0
81 50 69 68 49 75 47 -136 -119 -118 -135 183 0
38 66 40 65 74 80 41 -114 -113 -133 -132 182 0
181 -174 0
181 -179 0
181 -180 0
-130 -129 -128 -127 -151 180 0
-130 -129 -128 -127 -178 -156 179 0
178 -175 0
178 -176 0
178 -177 0
55 76 59 58 57 71 85 -166 -165 -149 -148 177 0
50 68 49 48 46 75 84 -146 -163 -162 -145 176 0
39 37 40 65 74 83 41 -160 -159 -143 -142 175 0
-130 -129 -128 -127 -126 -173 174 0
173 -170 0
173 -171 0
173 -172 0
76 59 58 57 72 71 85 -149 -148 -107 -106 172 0
50 69 68 49 48 75 84 -146 -145 -101 -100 171 0
39 66 40 65 74 83 41 -143 -142 -97 -96 170 0
-130 -168 -129 -128 -127 -158 169 0
168 -161 0
168 -164 0
168 -167 0
56 55 76 58 57 79 71 -166 -165 -124 -123 167 0
166 61 0
166 1 0
165 60 0
165 -1 0
68 49 48 46 75 47 78 -119 -118 -163 -162 164 0
163 52 0
163 1 0
162 51 0
162 -1 0
39 38 37 40 65 74 77 -160 -159 -114 -113 161 0
160 43 0
160 1 0
159 42 0
159 -1 0
158 -131 0
158 -152 0
158 -157 0
-130 -129 -128 -127 -156 157 0
156 -153 0
156 -154 0
156 -155 0
54 56 59 58 57 72 71 -108 -122 -121 -105 155 0
50 69 68 49 48 45 47 -103 -102 -117 -116 154 0
39 38 36 66 40 65 41 -98 -112 -111 -95 153 0
-130 -129 -128 -127 -151 -141 152 0
151 -144 0
151 -147 0
151 -150 0
76 58 57 79 72 71 85 -149 -148 -122 -121 150 0
149 34 0
149 4 0
148 31 0
148 -4 0
69 68 49 48 75 78 84 -146 -145 -117 -116 147 0
146 32 0
146 4 0
145 30 0
145 -4 0
39 66 40 65 74 77 83 -143 -142 -112 -111 144 0
143 33 0
143 4 0
142 29 0
142 -4 0
141 -134 0
141 -137 0
141 -140 0
54 56 59 58 72 71 82 -108 -139 -138 -105 140 0
139 61 0
139 4 0
138 60 0
138 -4 0
81 50 69 68 49 45 47 -103 -102 -136 -135 137 0
136 52 0
136 4 0
135 51 0
135 -4 0
38 36 66 40 65 80 41 -98 -133 -132 -95 134 0
133 43 0
133 4 0
132 42 0
132 -4 0
-130 -129 -128 -127 -126 -110 131 0
130 30 0
130 -29 0
129 32 0
129 -34 0
128 33 0
128 -32 0
127 31 0
127 -30 0
126 -115 0
126 -120 0
126 -125 0
56 76 59 57 73 72 71 -124 -123 -122 -121 125 0
124 34 0
124 2 0
123 31 0
123 -2 0
122 61 0
122 3 0
121 60 0
121 -3 0
50 69 68 48 75 47 70 -119 -118 -117 -116 120 0
119 32 0
119 2 0
118 30 0
118 -2 0
117 52 0
117 3 0
116 51 0
116 -3 0
39 38 67 66 65 74 41 -114 -113 -112 -111 115 0
114 33 0
114 2 0
113 29 0
113 -2 0
112 43 0
112 3 0
111 42 0
111 -3 0
110 -99 0
110 -104 0
110 -109 0
54 56 59 57 73 72 71 -108 -107 -106 -105 109 0
108 31 0
108 -1 0
107 61 0
107 2 0
106 60 0
106 -2 0
105 34 0
105 1 0
50 69 68 48 45 47 70 -103 -102 -101 -100 104 0
103 32 0
103 1 0
102 30 0
102 -1 0
101 52 0
101 2 0
100 51 0
100 -2 0
39 38 36 67 66 65 41 -98 -97 -96 -95 99 0
98 33 0
98 1 0
97 43 0
97 2 0
96 42 0
96 -2 0
95 29 0
95 -1 0
